language Essence 1.3

letting x be
        relation((1, 4, 1), (1, 4, 7), (1, 5, 1), (1, 5, 7), (1, 6, 1), (1, 6, 7),
                 (2, 4, 1), (2, 4, 7), (2, 5, 1), (2, 5, 7), (2, 6, 1), (2, 6, 7))
